c uprop, v00.0, 
c reading from data/prog899.c.cnf
c done reading: 0.002803
p cnf 141 569
-45 -67 0
-45 -63 0
45 63 67 0
-40 63 67 0
-40 -63 -67 0
40 63 -67 0
40 -63 67 0
45 -58 0
-56 -58 0
-45 56 58 0
-45 -51 56 0
45 -51 -56 0
45 51 56 0
-45 51 -56 0
-47 58 0
-44 -47 0
44 47 -58 0
-42 44 -58 0
-42 -44 58 0
42 44 58 0
42 -44 -58 0
-41 47 0
-38 -41 0
38 41 -47 0
38 -47 -65 0
-38 47 -65 0
38 47 65 0
-38 -47 65 0
41 -69 0
-60 -69 0
-41 60 69 0
-41 60 -70 0
41 -60 -70 0
41 60 70 0
-41 -60 70 0
69 -71 0
-53 -71 0
53 -69 71 0
53 -69 -72 0
-53 69 -72 0
53 69 72 0
-53 -69 72 0
71 -73 0
-49 -73 0
49 -71 73 0
49 -71 -74 0
-49 71 -74 0
49 71 74 0
-49 -71 74 0
63 -75 0
67 -75 0
-63 -67 75 0
-63 -67 -76 0
63 67 -76 0
-63 67 76 0
63 -67 76 0
-56 -63 77 0
-56 -75 77 0
-63 -75 77 0
56 63 -77 0
56 75 -77 0
63 75 -77 0
56 -77 -78 0
63 -77 -78 0
75 -77 -78 0
-56 77 78 0
-63 77 78 0
-75 77 78 0
-56 -63 -75 78 0
56 63 75 -78 0
-44 -56 79 0
-44 -77 79 0
-56 -77 79 0
44 56 -79 0
44 77 -79 0
56 77 -79 0
44 -79 -80 0
56 -79 -80 0
77 -79 -80 0
-44 79 80 0
-56 79 80 0
-77 79 80 0
-44 -56 -77 80 0
44 56 77 -80 0
-38 -44 81 0
-38 -79 81 0
-44 -79 81 0
38 44 -81 0
38 79 -81 0
44 79 -81 0
-36 38 -81 0
-36 44 -81 0
-36 79 -81 0
36 -38 81 0
36 -44 81 0
36 -79 81 0
36 -38 -44 -79 0
-36 38 44 79 0
35 -38 -60 0
35 -60 -81 0
35 -38 -81 0
-35 38 60 0
-35 60 81 0
-35 38 81 0
-34 -35 60 0
-34 -35 38 0
-34 -35 81 0
34 35 -60 0
34 35 -38 0
34 35 -81 0
34 -38 -60 -81 0
-34 38 60 81 0
33 -53 -60 0
33 -35 -53 0
33 -35 -60 0
-33 53 60 0
-33 35 53 0
-33 35 60 0
-32 -33 53 0
-32 -33 60 0
-32 -33 35 0
32 33 -53 0
32 33 -60 0
32 33 -35 0
32 -35 -53 -60 0
-32 35 53 60 0
31 -49 -53 0
31 -33 -49 0
31 -33 -53 0
-31 49 53 0
-31 33 49 0
-31 33 53 0
-31 49 -66 0
-31 53 -66 0
-31 33 -66 0
31 -49 66 0
31 -53 66 0
31 -33 66 0
-33 -49 -53 66 0
33 49 53 -66 0
49 -62 0
31 -62 0
-31 -49 62 0
-31 -49 -55 0
31 49 -55 0
31 -49 55 0
-31 49 55 0
-43 80 0
-43 67 0
43 -67 -80 0
-37 -67 -80 0
-37 67 80 0
37 67 -80 0
37 -67 80 0
-36 59 -63 0
-36 -43 59 0
-43 59 -63 0
36 -59 63 0
36 43 -59 0
43 -59 63 0
36 -52 -59 0
-52 -59 63 0
43 -52 -59 0
-36 52 59 0
52 59 -63 0
-43 52 59 0
-36 -43 52 -63 0
36 43 -52 63 0
-34 48 -56 0
-34 48 -59 0
48 -56 -59 0
34 -48 56 0
34 -48 59 0
-48 56 59 0
-34 48 0
48 -56 0
48 -59 0
-34 -56 -59 0
30 -32 -44 0
30 -32 -48 0
30 -44 -48 0
-30 32 44 0
-30 32 48 0
-30 44 48 0
30 -32 0
30 -44 0
30 -48 0
-32 -44 -48 0
29 -38 -66 0
29 -30 -66 0
29 -30 -38 0
-29 38 66 0
-29 30 66 0
-29 30 38 0
29 -66 0
29 -38 0
29 -30 0
-30 -38 -66 0
28 -55 -60 0
28 -29 -55 0
28 -29 -60 0
-28 55 60 0
-28 29 55 0
-28 29 60 0
28 -55 0
28 -60 0
28 -29 0
-29 -55 -60 0
27 -53 -62 0
27 -28 -62 0
27 -28 -53 0
-27 53 62 0
-27 28 62 0
-27 28 53 0
27 -62 0
27 -53 0
27 -28 0
-28 -53 -62 0
-27 -49 0
27 -49 0
-27 49 0
-26 -67 0
-26 -76 0
26 67 76 0
-25 67 76 0
-25 -67 -76 0
25 -67 76 0
25 67 -76 0
-24 26 0
-24 -78 0
24 -26 78 0
-23 -26 78 0
-23 26 -78 0
23 26 78 0
23 -26 -78 0
-22 24 0
-22 -37 0
22 -24 37 0
-21 -24 37 0
-21 24 -37 0
21 24 37 0
21 -24 -37 0
-20 22 0
-20 -52 0
20 -22 52 0
-19 -22 52 0
-19 22 -52 0
19 22 52 0
19 -22 -52 0
-18 20 0
18 -20 0
-17 -20 0
17 20 0
-16 18 0
16 -18 0
-15 -18 0
15 18 0
16 -82 0
-16 82 0
-16 -83 0
16 83 0
82 -84 0
-82 84 0
-82 -85 0
82 85 0
84 -86 0
-84 86 0
-84 -87 0
84 87 0
86 -88 0
-86 88 0
-86 -89 0
86 89 0
88 -90 0
-88 90 0
-88 -91 0
88 91 0
-92 -94 0
92 94 0
92 -95 0
-92 95 0
94 -96 0
-96 -97 0
-94 96 97 0
-94 97 -98 0
94 -97 -98 0
94 97 98 0
-94 -97 98 0
96 -99 0
-99 -100 0
-96 99 100 0
-96 100 -102 0
96 -100 -102 0
96 100 102 0
-96 -100 102 0
99 -103 0
-103 -104 0
-99 103 104 0
-99 104 -105 0
99 -104 -105 0
99 104 105 0
-99 -104 105 0
103 -106 0
-106 -107 0
-103 106 107 0
-103 107 -109 0
103 -107 -109 0
103 107 109 0
-103 -107 109 0
106 -110 0
-110 -111 0
-106 110 111 0
-106 111 -112 0
106 -111 -112 0
106 111 112 0
-106 -111 112 0
110 -113 0
-113 -114 0
-110 113 114 0
-110 114 -116 0
110 -114 -116 0
110 114 116 0
-110 -114 116 0
97 -117 0
-97 117 0
-92 -100 118 0
92 100 -118 0
100 -118 0
92 -118 0
100 -118 -119 0
92 -118 -119 0
-118 -119 0
-100 118 119 0
-92 118 119 0
92 100 -119 0
-97 -104 120 0
-104 -118 120 0
-97 -118 120 0
97 104 -120 0
104 118 -120 0
97 118 -120 0
104 -120 -121 0
97 -120 -121 0
118 -120 -121 0
-104 120 121 0
-97 120 121 0
-118 120 121 0
-97 -104 -118 121 0
97 104 118 -121 0
-100 -107 122 0
-107 -120 122 0
-100 -120 122 0
100 107 -122 0
107 120 -122 0
100 120 -122 0
107 -122 -123 0
100 -122 -123 0
120 -122 -123 0
-107 122 123 0
-100 122 123 0
-120 122 123 0
-100 -107 -120 123 0
100 107 120 -123 0
-104 -111 124 0
-111 -122 124 0
-104 -122 124 0
104 111 -124 0
111 122 -124 0
104 122 -124 0
111 -124 -125 0
104 -124 -125 0
122 -124 -125 0
-111 124 125 0
-104 124 125 0
-122 124 125 0
-104 -111 -122 125 0
104 111 122 -125 0
-107 -114 126 0
-114 -124 126 0
-107 -124 126 0
107 114 -126 0
114 124 -126 0
107 124 -126 0
114 -126 -127 0
107 -126 -127 0
124 -126 -127 0
-114 126 127 0
-107 126 127 0
-124 126 127 0
-107 -114 -124 127 0
107 114 124 -127 0
111 -128 0
126 -128 0
-111 -126 128 0
-68 -111 -126 0
-68 111 126 0
68 -111 126 0
68 111 -126 0
-64 114 0
-64 128 0
64 -114 -128 0
-57 -114 -128 0
-57 114 128 0
57 -114 128 0
57 114 -128 0
-39 121 0
39 -121 0
61 -92 -123 0
-61 92 123 0
-61 123 0
-61 92 0
-54 -61 123 0
-54 -61 92 0
-54 -61 0
54 61 -123 0
54 61 -92 0
-54 92 123 0
50 -97 -125 0
50 -61 -125 0
50 -61 -97 0
-50 97 125 0
-50 61 125 0
-50 61 97 0
50 -125 0
50 -97 0
50 -61 0
-61 -97 -125 0
93 -100 -127 0
-50 93 -127 0
-50 93 -100 0
-93 100 127 0
50 -93 127 0
50 -93 100 0
93 -127 0
93 -100 0
-50 93 0
-50 -100 -127 0
-68 101 -104 0
-68 -93 101 0
-93 101 -104 0
68 -101 104 0
68 93 -101 0
93 -101 104 0
-68 101 0
101 -104 0
-93 101 0
-68 -93 -104 0
-57 -107 108 0
-57 -101 108 0
-101 -107 108 0
57 107 -108 0
57 101 -108 0
101 107 -108 0
-57 108 0
-107 108 0
-101 108 0
-57 -101 -107 0
-64 -111 115 0
-64 -108 115 0
-108 -111 115 0
64 111 -115 0
64 108 -115 0
108 111 -115 0
-64 115 0
-111 115 0
-108 115 0
-64 -108 -111 0
-114 -115 0
-114 115 0
114 -115 0
-92 -129 0
92 129 0
92 -130 0
-92 130 0
129 -131 0
-117 -131 0
117 -129 131 0
117 -129 -132 0
-117 129 -132 0
117 129 132 0
-117 -129 132 0
131 -133 0
-119 -133 0
119 -131 133 0
119 -131 -134 0
-119 131 -134 0
119 131 134 0
-119 -131 134 0
133 -135 0
-39 -135 0
39 -133 135 0
39 -133 -136 0
-39 133 -136 0
39 133 136 0
-39 -133 136 0
135 -137 0
-54 -137 0
54 -135 137 0
54 -135 -138 0
-54 135 -138 0
54 135 138 0
-54 -135 138 0
137 -139 0
-137 139 0
-137 -140 0
137 140 0
139 -141 0
-139 141 0
-46 -139 0
46 139 0
-14 141 0
14 -141 0
-13 -141 0
13 141 0
-12 14 0
12 -14 0
-11 -14 0
11 14 0
-10 12 0
10 -12 0
-9 -12 0
9 12 0
-8 10 0
8 -10 0
-7 -10 0
7 10 0
-6 8 0
6 -8 0
-5 -8 0
5 8 0
-4 67 0
-4 92 0
4 -67 -92 0
-67 -92 0
67 92 0
3 -76 -117 0
3 -4 -76 0
3 -4 -117 0
-3 76 117 0
-3 4 76 0
-3 4 117 0
-3 76 0
-3 117 0
-3 4 0
4 76 117 0
2 -78 -119 0
2 -3 -78 0
2 -3 -119 0
-2 78 119 0
-2 3 78 0
-2 3 119 0
2 -78 0
2 -119 0
2 -3 0
-3 -78 -119 0
1 -37 -39 0
1 -2 -37 0
1 -2 -39 0
-1 37 39 0
-1 2 37 0
-1 2 39 0
-1 37 0
-1 39 0
-1 2 0
2 37 39 0
-52 -54 0
-1 -52 0
-1 -54 0
1 52 54 0
